unsat
(:SPACER-conj                         2
 :SPACER-inductive-gen                21
 :SPACER-inductive-gen-weaken-fail    29
 :SPACER-inductive-gen-weaken-success 1
 :SPACER-inductive-level              8
 :SPACER-max-depth                    8
 :SPACER-max-query-lvl                8
 :SPACER-non-local-gen                11
 :SPACER-num-active-lemmas            12
 :SPACER-num-cant-abstract            2
 :SPACER-num-ctp-blocked              10
 :SPACER-num-invariants               8
 :SPACER-num-is_invariant             65
 :SPACER-num-lemmas                   41
 :SPACER-num-pobs                     20
 :SPACER-num-propagations             39
 :SPACER-num-queries                  30
 :added-eqs                           2096
 :arith-assert-diseq                  774
 :arith-assert-lower                  2742
 :arith-assert-upper                  4858
 :arith-bound-prop                    92
 :arith-conflicts                     24
 :arith-eq-adapter                    216
 :arith-fixed-eqs                     348
 :arith-num-rows                      22
 :arith-offset-eqs                    208
 :arith-pivots                        236
 :arith-row-summations                270
 :arith-tableau-max-columns           66
 :arith-tableau-max-rows              22
 :conflicts                           422
 :decisions                           2900
 :del-clause                          512
 :final-checks                        140
 :iuc_solver.num_proxies              45
 :max-memory                          31.55
 :memory                              31.05
 :minimized-lits                      22
 :mk-bool-var                         2040
 :mk-clause                           1204
 :num-allocs                          22040223
 :num-checks                          438
 :pool_solver.checks                  219
 :pool_solver.checks.sat              70
 :propagations                        17990
 :rlimit-count                        86571
 :time                                0.12
 :time.iuc_solver.get_iuc             0.01
 :time.iuc_solver.get_iuc.hyp_reduce1 0.00
 :time.iuc_solver.get_iuc.hyp_reduce2 0.01
 :time.iuc_solver.get_iuc.learn_core  0.00
 :time.pool_solver.proof              0.00
 :time.pool_solver.smt.total          0.04
 :time.pool_solver.smt.total.sat      0.01
 :time.spacer.init_rules              0.00
 :time.spacer.mbp                     0.00
 :time.spacer.solve                   0.10
 :time.spacer.solve.propagate         0.02
 :time.spacer.solve.reach             0.08
 :time.spacer.solve.reach.children    0.01
 :time.spacer.solve.reach.cluster     0.01
 :time.spacer.solve.reach.gen.global  0.01
 :time.spacer.solve.reach.gen.ind     0.01)
(:max-memory   31.55
 :memory       31.05
 :num-allocs   22040223
 :rlimit-count 86571
 :time         0.12
 :total-time   0.13)
